NAME = SAfile180,
TOURSIZE = 180,
LENGTH = 2050,
87,86,56,157,108,144,131,76,53,31,141,27,114,111,35,107,120,115,165,160,92,95,109,30,51,47,178,7,79,162,61,15,147,40,46,138,42,21,8,93,11,63,38,50,4,32,113,57,142,98,91,1,59,161,126,127,146,143,100,65,112,81,48,94,26,101,148,9,5,140,163,74,78,159,153,123,39,3,34,10,97,156,2,18,136,90,167,75,145,104,177,169,55,124,66,36,37,23,70,77,128,155,41,83,171,64,54,28,73,33,125,58,180,176,103,96,170,164,110,105,149,150,132,6,22,175,71,119,133,25,88,102,129,154,151,117,49,99,130,84,20,122,134,13,80,121,179,166,106,19,17,68,16,29,152,139,43,52,135,158,116,172,45,12,173,174,82,72,62,137,24,44,118,89,168,14,60,85,69,67